NAME: instance_284
TYPE: TSP
DIMENSION: 20
EDGE_WEIGHT_TYPE: EUC_2D
NODE_COORD_SECTION
0 61.91 73.91
1 20.07 51.91
2 45.84 48.83
3 34.70 31.42
4 52.38 1.94
5 2.81 51.04
6 21.07 75.51
7 39.78 81.57
8 9.46 65.04
9 34.90 58.05
10 38.99 14.08
11 44.74 32.20
12 23.11 22.02
13 25.53 42.11
14 19.89 94.61
15 41.71 18.59
16 25.62 58.91
17 1.05 39.89
18 5.41 48.69
19 85.08 90.22
EOF
